
Gurobi 9.0.1 (linux64) logging started Thu Apr 30 15:07:37 2020

Gurobi Optimizer version 9.0.1 build v9.0.1rc0 (linux64)
Optimize a model with 11327 rows, 12060 columns and 198990 nonzeros
Model fingerprint: 0x25d64c6c
Variable types: 0 continuous, 12060 integer (12032 binary)
Coefficient statistics:
  Matrix range     [1e+00, 1e+01]
  Objective range  [2e+00, 1e+02]
  Bounds range     [1e+00, 1e+00]
  RHS range        [1e+00, 1e+00]

User MIP start produced solution with objective 980 (0.27s)
Loaded user MIP start with objective 980

Presolve removed 928 rows and 1887 columns
Presolve time: 2.76s
Presolved: 10399 rows, 10173 columns, 162246 nonzeros
Variable types: 0 continuous, 10173 integer (10147 binary)

Root simplex log...

Iteration    Objective       Primal Inf.    Dual Inf.      Time
    3525    4.4100017e+02   5.955371e+03   0.000000e+00      5s
    6175    4.6251281e+02   3.649338e+03   0.000000e+00     10s
    8320    4.6479841e+02   1.608275e+03   0.000000e+00     15s
   10486    4.6527318e+02   1.349269e+02   0.000000e+00     20s
   12245    4.6550945e+02   1.490204e+04   0.000000e+00     25s
   13656    4.6562728e+02   2.078001e+03   0.000000e+00     30s
   15169    4.6568809e+02   3.017011e+02   0.000000e+00     35s
   16072    4.6570158e+02   0.000000e+00   0.000000e+00     38s

Root relaxation: objective 4.657016e+02, 16072 iterations, 34.73 seconds

    Nodes    |    Current Node    |     Objective Bounds      |     Work
 Expl Unexpl |  Obj  Depth IntInf | Incumbent    BestBd   Gap | It/Node Time

     0     0  465.70158    0 3572  980.00000  465.70158  52.5%     -   41s
     0     0  495.42298    0 3346  980.00000  495.42298  49.4%     -  116s
     0     0  495.42384    0 3323  980.00000  495.42384  49.4%     -  120s
     0     0  515.49365    0 3459  980.00000  515.49365  47.4%     -  241s
H    0     0                     949.0000000  515.49365  45.7%     -  244s
     0     0  515.55023    0 3455  949.00000  515.55023  45.7%     -  268s
     0     0  515.55152    0 3477  949.00000  515.55152  45.7%     -  273s
     0     0  527.83159    0 3550  949.00000  527.83159  44.4%     -  619s
     0     0  527.94808    0 3532  949.00000  527.94808  44.4%     -  665s
     0     0  527.98732    0 3527  949.00000  527.98732  44.4%     -  682s
     0     0  527.99641    0 3522  949.00000  527.99641  44.4%     -  691s
     0     0  529.03035    0 3570  949.00000  529.03035  44.3%     -  848s
     0     0  529.08259    0 3573  949.00000  529.08259  44.2%     -  876s
     0     0  529.08985    0 3575  949.00000  529.08985  44.2%     -  886s
     0     0  530.74720    0 3610  949.00000  530.74720  44.1%     - 1059s
     0     0  530.87531    0 3593  949.00000  530.87531  44.1%     - 1113s
     0     0  530.93106    0 3613  949.00000  530.93106  44.1%     - 1140s
     0     0  530.93766    0 3602  949.00000  530.93766  44.1%     - 1148s
     0     0  533.34387    0 3618  949.00000  533.34387  43.8%     - 1284s
     0     0  533.39671    0 3650  949.00000  533.39671  43.8%     - 1322s
     0     0  533.41112    0 3629  949.00000  533.41112  43.8%     - 1340s
     0     0  534.29328    0 3630  949.00000  534.29328  43.7%     - 1451s
     0     0  534.36959    0 3621  949.00000  534.36959  43.7%     - 1505s
     0     0  534.40067    0 3638  949.00000  534.40067  43.7%     - 1527s
     0     0  534.81534    0 3613  949.00000  534.81534  43.6%     - 1624s
     0     0  534.83699    0 3639  949.00000  534.83699  43.6%     - 1656s
     0     0  535.15690    0 3664  949.00000  535.15690  43.6%     - 1769s
     0     0  535.15690    0 3664  949.00000  535.15690  43.6%     - 1785s
     0     2  535.15729    0 3662  949.00000  535.15729  43.6%     - 1876s
     1     3  535.46608    1 3547  949.00000  535.15729  43.6% 17683 1972s
     2     4  543.79747    1 3483  949.00000  535.46640  43.6% 45324 2373s
     3     5  544.53261    2 3429  949.00000  535.46795  43.6% 64265 2972s
     4     6  536.93890    2 3434  949.00000  536.93890  43.4% 60314 3247s
     5     7  537.18694    3 3531  949.00000  536.93992  43.4% 50326 3299s
     6     8  538.17021    4 3463  949.00000  536.93992  43.4% 43786 3357s
     7     9  538.20459    5 3442  949.00000  536.93992  43.4% 38006 3372s
     8    10  538.31123    6 3478  949.00000  536.93992  43.4% 33647 3487s
     9    11  538.47067    7 3447  949.00000  536.93992  43.4% 30394 3506s
    10    12  538.53458    8 3462  949.00000  536.93992  43.4% 28448 3550s

Cutting planes:
  Gomory: 2
  MIR: 59
  StrongCG: 4
  Zero half: 39
  RLT: 2215

Explored 11 nodes (574059 simplex iterations) in 3600.01 seconds
Thread count was 1 (of 40 available processors)

Solution count 2: 949 980 

Time limit reached
Best objective 9.490000000000e+02, best bound 5.370000000000e+02, gap 43.4141%

User-callback calls 24845, time in user-callback 0.05 sec
